TCS_Benchmarks/redos_fix/regexlib1_output_distinct_2751_2750_4_0.smt2
(set-logic QF_S)
(declare-const x String)
(assert (str.in.re x (re.inter  (re.++ (re.*  (re.union  (str.to.re "\u{20}") (re.union  (str.to.re "\u{3a}") (re.union  (str.to_re "\u{09}")  (str.to.re "\u{2d}")))) ) (re.+  (re.union (re.range "\u{30}" "\u{39}") (re.union  (str.to.re "\u{20}") (re.union  (str.to.re "\u{2d}") (re.union  (str.to.re "\u{28}") (re.union  (str.to.re "\u{29}") (re.union  (re.++  (str.to.re "\u{65}") (re.++  (str.to.re "\u{78}") (re.++  (str.to.re "\u{74}") (re.union (re.range "\u{00}" "\u{09}") (re.range "\u{0b}" "\u{0c}") (re.range "\u{0e}" "\u{84}") (re.range "\u{86}" "\u{ff}")))))  (str.to.re "\u{2c}"))))))) ))  (re.++ (re.*  (re.union  (str.to.re "\u{20}") (re.union  (str.to.re "\u{3a}") (re.union  (str.to_re "\u{09}")  (str.to.re "\u{2d}")))) ) (re.+  (re.union (re.range "\u{30}" "\u{39}") (re.union  (str.to.re "\u{20}") (re.union  (str.to.re "\u{2d}") (re.union  (str.to.re "\u{28}") (re.union  (str.to.re "\u{29}") (re.union  (re.++  (str.to.re "\u{65}") (re.++  (str.to.re "\u{78}") (re.++  (str.to.re "\u{74}") (re.union (re.range "\u{00}" "\u{09}") (re.range "\u{0b}" "\u{0c}") (re.range "\u{0e}" "\u{84}") (re.range "\u{86}" "\u{ff}")))))  (str.to.re "\u{2c}"))))))) )) )))
(check-sat)
(get-model)