TCS_Benchmarks/redos_fix/regexlib1_output_distinct_2751_2750_4_0.txt
(([ ]|[:]|\t|[\-])*)(([0-9]|[ ]|[\-]|[\(]|[\)]|ext.|[,])+)
(([ ]|[:]|\t|[\-])*)(([0-9]|[ ]|[\-]|[\(]|[\)]|ext.|[,])+)